n_potions = 66;
alchemy = [2, 4, 4, 3, 3, 3, 1, 4, 2, 5, 5, 4, 3, 2, 4, 5, 4, 2, 4, 1, 2, 3, 5, 4, 2, 5, 3, 2, 3, 5, 2, 5, 5, 1, 1, 4, 4, 5, 4, 4, 3, 1, 1, 5, 1, 3, 5, 4, 1, 3, 4, 4, 5, 1, 1, 1, 3, 4, 2, 5, 2, 1, 1, 3, 5, 4];
n_days = 12;
min_potions = 5;
max_potions = 7;
min_alchemists = 5;
max_alchemists = 35;
prereqs = [|7,1
|8,2
|8,6
|10,5
|11,5
|12,7
|13,8
|14,3
|16,9
|17,10
|18,10
|18,11
|19,11
|20,9
|21,10
|23,17
|24,13
|24,19
|26,13
|26,23
|30,9
|32,9
|34,17
|35,9
|35,17
|35,18
|37,30
|37,35
|38,33
|41,17
|41,18
|43,20
|44,16
|45,38
|46,37
|48,34
|48,35
|50,43
|51,33
|53,47
|55,43
|55,38
|56,51
|57,39
|57,34
|61,48
|61,55
|62,31
|63,48
|65,59
|];
